certificates/rado_a11_c125_N29.drat
-25 -29 0
12 13 -29 0
-28 -29 0
13 -29 0
d 12 13 -29 0
-29 0
12 -13 0
-13 0
11 0
-7 0
-15 0
25 0
-10 0
-21 0
14 0
28 0
22 0
3 0
6 0
-18 0
-24 0
-26 0
-2 0
9 0
8 0
17 0
20 0
-5 0
-12 0
-4 0
-16 0
0
